Traveling Salesman Problem/TSP_generados/Aleatorio1621103245_6.tsp
NAME: Aleatorio1621103245_6.tsp
COMMENT: Randomly generated scenario
TYPE: TSP
DIMENSION: 6
EDGE_WEIGHT_TYPE: ATT
NODE_COORD_SECTION
1 25.31 41.49
2 10.15 25.71
3 36.5 18.57
4 4.61 22.37
5 42.2 41.45
6 28.19 20.79
