Traveling Salesman Problem/TSP_generados/Aleatorio1621103245_6.opt.tour
NAME: Aleatorio1621103245_6.opt.tour
COMMENT: Optimal solution for Aleatorio1621103245_6 (101.05488563550882)
TYPE: TOUR
DIMENSION: 6
TOUR_SECTION
1 5 3 6 4 2
-1
EOF
